
/* Objective function */
max: 20.5 x11 +20.5 x12 + 20.5 x13 + 20.5 x14 + 14.7 x21 + 14.7 x22 + 14.7 x23 + 14.7 x24 + 15 x31 + 15 x32 + 15 x33 + 15 x34 + 19.3 x41 + 19.3 x42 + 19.3 x43 + 19.3 x44 + 13.8 x51 + 13.8 x52 + 13.8 x53 + 13.8 x54 + 15.7 x61 + 15.7 x62 + 15.7 x63 + 15.7 x64 + 16.4 x71 + 16.4 x72 + 16.4 x73 + 16.4 x74 + 18.9 x81 + 18.9 x82 + 18.9 x83 + 18.9 x84 + 19.2 x91 + 19.2 x92 + 19.2 x93 + 19.2 x94 + 17.6 x101 + 17.6 x102 + 17.6 x103 + 17.6 x104 + 18.1 x111 + 18.1 x112 + 18.1 x113 + 18.1 x114 + 16.7 x121 + 16.7 x122 + 16.7 x123 + 16.7 x124;



/* Constraints */
x11 + x12 + x13 + x14  = 1;
x21 + x22 + x23 + x24  = 1;
x31 + x32 + x33 + x34  = 1;
x41 + x42 + x43 + x44  = 1;
x51 + x52 + x53 + x54  = 1;
x61 + x62 + x63 + x64  = 1;
x71 + x72 + x73 + x74  = 1;
x81 + x82 + x83 + x84  = 1;
x91 + x92 + x93 + x94  = 1;
x101 + x102 + x103 + x104 = 1;
x111 + x112 + x113 + x114 = 1;
x121 + x122 + x123 + x124 = 1;
x11 + x21 + x31 + x41 + x51 + x61 + x71 + x81 + x91 + x101 + x111 + x121 = 3;
x12 + x22 + x32 + x42 + x52 + x62 + x72 + x82 + x92 + x102 + x112 + x122 = 3;
x13 + x23 + x33 + x43 + x53 + x63 + x73 + x83 + x93 + x103 + x113 + x123 = 3;
x14 + x24 + x34 + x44 + x54 + x64 + x74 + x84 + x94 + x104 + x114 + x124 = 3;
3.5 x11 + 3.7 x21 + 4 x31 + 3.3 x41 + 3.8 x51 + 3.7 x61 + 3.4 x71 + 3.9 x81 + 3.2 x91 + 3.6 x101 + 3.1 x111 + 3.7 x121 + 3.5 x12 + 3.7 x22 + 4 x32 + 3.3 x42 + 3.8 x52 + 3.7 x62 + 3.4 x72 + 3.9 x82 + 3.2 x92 + 3.6 x102 + 3.1 x112 + 3.7 x122 + 3.5 x13 + 3.7 x23 + 4 x33 + 3.3 x43 + 3.8 x53 + 3.7 x63 + 3.4 x73 + 3.9 x83 + 3.2 x93 + 3.6 x103 + 3.1 x113 + 3.7 x123  + 3.5 x14 + 3.7 x24 + 4 x34 + 3.3 x44 + 3.8 x54 + 3.7 x64 + 3.4 x74 + 3.9 x84 + 3.2 x94 + 3.6 x104 + 3.1 x114 + 3.7 x124 >= 9.5;
8 x11 + 6 x21 + 4 x31 + 6 x41 + 5 x51 + 6 x61 + 4 x71 + 6 x81 + 9 x91 + 7 x101 + 9 x111 + 5 x121 + 8 x12 + 6 x22 + 4 x32 + 6 x42 + 5 x52 + 6 x62 + 4 x72 + 6 x82 + 9 x92 + 7 x102 + 9 x112 + 5 x122  + 8 x13 + 6 x23 + 4 x33 + 6 x43 + 5 x53 + 6 x63 + 4 x73 + 6 x83 + 9 x93 + 7 x103 + 9 x113 + 5 x123 + 8 x14 + 6 x24 + 4 x34 + 6 x44 + 5 x54 + 6 x64 + 4 x74 + 6 x84 + 9 x94 + 7 x104 + 9 x114 + 5 x124 >= 17;
9 x11 + 5 x21 + 7 x31 + 10 x41 + 5 x51 + 6 x61 + 9 x71 + 9 x81 + 7 x91 + 7 x101 + 6 x111 + 8 x121 + 9 x12 + 5 x22 + 7 x32 + 10 x42 + 5 x52 + 6 x62 + 9 x72 + 9 x82 + 7 x92 + 7 x102 + 6 x112 + 8 x122 + 9 x13 + 5 x23 + 7 x33 + 10 x43 + 5 x53 + 6 x63 + 9 x73 + 9 x83 + 7 x93 + 7 x103 + 6 x113 + 8 x123 + 9 x14 + 5 x24 + 7 x34 + 10 x44 + 5 x54 + 6 x64 + 9 x74 + 9 x84 + 7 x94 + 7 x104 + 6 x114 + 8 x124 >= 20;
